Traveling Salesman Problem/TSP_generados/Aleatorio1621104938_19.tsp
NAME: Aleatorio1621104938_19.tsp
COMMENT: Randomly generated scenario
TYPE: TSP
DIMENSION: 19
EDGE_WEIGHT_TYPE: ATT
NODE_COORD_SECTION
1 8.2 20.99
2 23.05 49.09
3 47.27 2.25
4 11.32 42.32
5 11.73 20.33
6 8.03 34.22
7 33.23 25.46
8 40.05 40.88
9 47.2 15.69
10 12.9 0.75
11 13.28 1.15
12 3.31 29.0
13 15.41 34.83
14 9.39 24.67
15 36.25 30.86
16 7.73 34.88
17 14.96 24.76
18 31.25 31.78
19 17.47 31.52
