Traveling Salesman Problem/TSP_generados/Aleatorio1621104938_19.opt.tour
NAME: Aleatorio1621104938_19.opt.tour
COMMENT: Optimal solution for Aleatorio1621104938_19 (193.0188377703521)
TYPE: TOUR
DIMENSION: 19
TOUR_SECTION
1 12 14 17 19 13 6 16 4 2 8 15 18 7 9 3 11 10 5
-1
EOF
